(set-logic ALL)
(declare-fun seed0_T_1 () Bool)
(declare-fun seed0_T_2 () Bool)
(declare-fun seed0_var_0xINPUT_109541 () String)
(assert (and (or (= seed0_T_1 (not (= "" seed0_var_0xINPUT_109541))) (str.contains (str.++ seed0_var_0xINPUT_109541 "QRUZtzV8W") (str.++ seed0_var_0xINPUT_109541 "mybo"))) (or (= seed0_T_2 (not seed0_T_1)) (or (str.contains (str.++ seed0_var_0xINPUT_109541 "s5FKIu") (str.++ seed0_var_0xINPUT_109541 "FL")) (str.suffixof (str.++ seed0_var_0xINPUT_109541 "MT") (str.++ seed0_var_0xINPUT_109541 "5AkVscl7")))) (or seed0_T_2 (not (str.suffixof (str.++ seed0_var_0xINPUT_109541 "1") (str.++ seed0_var_0xINPUT_109541 "PE7wCDNvYGiK6drWF1jp"))))))
(check-sat)
(exit)